;(set-option :produce-unsat-cores true )
(set-logic ALL_SUPPORTED )
(declare-sort A$ 0 )
(declare-sort B$ 0 )
(declare-sort Nat$ 0 )
(declare-sort A_set$ 0 )
(declare-sort B_set$ 0 )
(declare-sort A_a_fun$ 0 )
(declare-sort A_b_fun$ 0 )
(declare-sort B_a_fun$ 0 )
(declare-sort B_b_fun$ 0 )
(declare-sort Nat_a_fun$ 0 )
(declare-sort Nat_b_fun$ 0 )
(declare-sort A_stream_set$ 0 )
(declare-sort B_stream_set$ 0 )
(declare-sort A_a_stream_fun$ 0 )
(declare-sort A_b_stream_fun$ 0 )
(declare-sort A_stream_a_fun$ 0 )
(declare-sort A_stream_b_fun$ 0 )
(declare-sort B_a_stream_fun$ 0 )
(declare-sort B_b_stream_fun$ 0 )
(declare-sort B_stream_a_fun$ 0 )
(declare-sort B_stream_b_fun$ 0 )
(declare-sort A_a_fun_a_a_fun_fun$ 0 )
(declare-sort A_a_fun_a_b_fun_fun$ 0 )
(declare-sort A_b_fun_a_a_fun_fun$ 0 )
(declare-sort A_b_fun_a_b_fun_fun$ 0 )
(declare-sort A_stream_stream_set$ 0 )
(declare-sort B_a_fun_b_a_fun_fun$ 0 )
(declare-sort B_a_fun_b_b_fun_fun$ 0 )
(declare-sort B_b_fun_b_a_fun_fun$ 0 )
(declare-sort B_b_fun_b_b_fun_fun$ 0 )
(declare-sort B_stream_stream_set$ 0 )
(declare-sort A_stream_stream_stream_set$ 0 )
(declare-sort B_b_stream_fun_b_a_fun_fun$ 0 )
(declare-sort B_b_stream_fun_b_b_fun_fun$ 0 )
(declare-sort B_stream_stream_stream_set$ 0 )
(declare-codatatypes ()((A_stream$ (sCons$ (shd$ A$ )(stl$ A_stream$ )))(B_stream$ (sCons$a (shd$a B$ )(stl$a B_stream$ )))(B_stream_stream$ (sCons$b (shd$b B_stream$ )(stl$b B_stream_stream$ )))(A_stream_stream$ (sCons$c (shd$c A_stream$ )(stl$c A_stream_stream$ )))(A_stream_stream_stream$ (sCons$d (shd$d A_stream_stream$ )(stl$d A_stream_stream_stream$ )))(B_stream_stream_stream$ (sCons$e (shd$e B_stream_stream$ )(stl$e B_stream_stream_stream$ )))))
(declare-fun f$ ()B_a_fun$ )
(declare-fun n$ ()Nat$ )
(declare-fun s$ ()B_stream$ )
(declare-fun id$ ()B_b_fun$ )
(declare-fun id$a ()A_a_fun$ )
(declare-fun suc$ (Nat$ )Nat$ )
(declare-fun comp$ (A_a_fun$ )B_a_fun_b_a_fun_fun$ )
(declare-fun smap$ (B_a_fun$ B_stream$ )A_stream$ )
(declare-fun snth$ (A_stream$ )Nat_a_fun$ )
(declare-fun sset$ (B_stream$ )B_set$ )
(declare-fun zero$ ()Nat$ )
(declare-fun comp$a (B_a_fun$ )B_b_fun_b_a_fun_fun$ )
(declare-fun comp$b (A_b_fun$ )B_a_fun_b_b_fun_fun$ )
(declare-fun comp$c (B_a_fun$ )A_b_fun_a_a_fun_fun$ )
(declare-fun comp$d (B_b_fun$ )B_b_fun_b_b_fun_fun$ )
(declare-fun comp$e (A_a_fun$ )A_a_fun_a_a_fun_fun$ )
(declare-fun comp$f (B_b_fun$ )A_b_fun_a_b_fun_fun$ )
(declare-fun comp$g (A_b_fun$ )A_a_fun_a_b_fun_fun$ )
(declare-fun comp$h (B_stream_a_fun$ )B_b_stream_fun_b_a_fun_fun$ )
(declare-fun comp$i (B_stream_b_fun$ )B_b_stream_fun_b_b_fun_fun$ )
(declare-fun smap$a (B_b_stream_fun$ B_stream$ )B_stream_stream$ )
(declare-fun smap$b (B_a_stream_fun$ B_stream$ )A_stream_stream$ )
(declare-fun smap$c (A_b_stream_fun$ A_stream$ )B_stream_stream$ )
(declare-fun smap$d (A_a_stream_fun$ A_stream$ )A_stream_stream$ )
(declare-fun smap$e (A_b_fun$ A_stream$ )B_stream$ )
(declare-fun smap$f (B_b_fun$ B_stream$ )B_stream$ )
(declare-fun smap$g (A_a_fun$ A_stream$ )A_stream$ )
(declare-fun smap$h (B_stream_b_fun$ B_stream_stream$ )B_stream$ )
(declare-fun smap$i (A_stream_b_fun$ A_stream_stream$ )B_stream$ )
(declare-fun smap$j (B_stream_a_fun$ B_stream_stream$ )A_stream$ )
(declare-fun smap$k (A_stream_a_fun$ A_stream_stream$ )A_stream$ )
(declare-fun snth$a (B_stream$ )Nat_b_fun$ )
(declare-fun snth$b (A_stream_stream$ Nat$ )A_stream$ )
(declare-fun snth$c (B_stream_stream$ Nat$ )B_stream$ )
(declare-fun sset$a (A_stream$ )A_set$ )
(declare-fun member$ (B_stream$ B_stream_set$ )Bool )
(declare-fun fun_app$ (Nat_a_fun$ Nat$ )A$ )
(declare-fun member$a (B$ B_set$ )Bool )
(declare-fun member$b (A$ A_set$ )Bool )
(declare-fun member$c (A_stream$ A_stream_set$ )Bool )
(declare-fun member$d (B_stream_stream$ B_stream_stream_set$ )Bool )
(declare-fun member$e (A_stream_stream$ A_stream_stream_set$ )Bool )
(declare-fun member$f (A_stream_stream_stream$ A_stream_stream_stream_set$ )Bool )
(declare-fun member$g (B_stream_stream_stream$ B_stream_stream_stream_set$ )Bool )
(declare-fun streams$ (B_set$ )B_stream_set$ )
(declare-fun fun_app$a (B_a_fun$ B$ )A$ )
(declare-fun fun_app$b (Nat_b_fun$ Nat$ )B$ )
(declare-fun fun_app$c (B_b_stream_fun$ B$ )B_stream$ )
(declare-fun fun_app$d (B_a_stream_fun$ B$ )A_stream$ )
(declare-fun fun_app$e (A_b_stream_fun$ A$ )B_stream$ )
(declare-fun fun_app$f (A_a_stream_fun$ A$ )A_stream$ )
(declare-fun fun_app$g (A_b_fun$ A$ )B$ )
(declare-fun fun_app$h (B_b_fun$ B$ )B$ )
(declare-fun fun_app$i (A_a_fun$ A$ )A$ )
(declare-fun fun_app$j (B_stream_b_fun$ B_stream$ )B$ )
(declare-fun fun_app$k (A_stream_b_fun$ A_stream$ )B$ )
(declare-fun fun_app$l (B_stream_a_fun$ B_stream$ )A$ )
(declare-fun fun_app$m (A_stream_a_fun$ A_stream$ )A$ )
(declare-fun fun_app$n (B_a_fun_b_a_fun_fun$ B_a_fun$ )B_a_fun$ )
(declare-fun fun_app$o (B_b_fun_b_a_fun_fun$ B_b_fun$ )B_a_fun$ )
(declare-fun fun_app$p (B_a_fun_b_b_fun_fun$ B_a_fun$ )B_b_fun$ )
(declare-fun fun_app$q (A_b_fun_a_a_fun_fun$ A_b_fun$ )A_a_fun$ )
(declare-fun fun_app$r (B_b_fun_b_b_fun_fun$ B_b_fun$ )B_b_fun$ )
(declare-fun fun_app$s (A_a_fun_a_a_fun_fun$ A_a_fun$ )A_a_fun$ )
(declare-fun fun_app$t (A_b_fun_a_b_fun_fun$ A_b_fun$ )A_b_fun$ )
(declare-fun fun_app$u (A_a_fun_a_b_fun_fun$ A_a_fun$ )A_b_fun$ )
(declare-fun fun_app$v (B_b_stream_fun_b_a_fun_fun$ B_b_stream_fun$ )B_a_fun$ )
(declare-fun fun_app$w (B_b_stream_fun_b_b_fun_fun$ B_b_stream_fun$ )B_b_fun$ )
(declare-fun streams$a (A_set$ )A_stream_set$ )
(declare-fun streams$b (B_stream_set$ )B_stream_stream_set$ )
(declare-fun streams$c (A_stream_set$ )A_stream_stream_set$ )
(declare-fun streams$d (A_stream_stream_set$ )A_stream_stream_stream_set$ )
(declare-fun streams$e (B_stream_stream_set$ )B_stream_stream_stream_set$ )
(assert (! (not (= (fun_app$ (snth$ (smap$ f$ s$ ))n$ )(fun_app$a f$ (fun_app$b (snth$a s$ )n$ )))):named a0 ))
(assert (! (forall ((?v0 B_b_stream_fun$ )(?v1 B_stream$ ))(= (shd$b (smap$a ?v0 ?v1 ))(fun_app$c ?v0 (shd$a ?v1 )))):named a1 ))
(assert (! (forall ((?v0 B_a_stream_fun$ )(?v1 B_stream$ ))(= (shd$c (smap$b ?v0 ?v1 ))(fun_app$d ?v0 (shd$a ?v1 )))):named a2 ))
(assert (! (forall ((?v0 A_b_stream_fun$ )(?v1 A_stream$ ))(= (shd$b (smap$c ?v0 ?v1 ))(fun_app$e ?v0 (shd$ ?v1 )))):named a3 ))
(assert (! (forall ((?v0 A_a_stream_fun$ )(?v1 A_stream$ ))(= (shd$c (smap$d ?v0 ?v1 ))(fun_app$f ?v0 (shd$ ?v1 )))):named a4 ))
(assert (! (forall ((?v0 A_b_fun$ )(?v1 A_stream$ ))(= (shd$a (smap$e ?v0 ?v1 ))(fun_app$g ?v0 (shd$ ?v1 )))):named a5 ))
(assert (! (forall ((?v0 B_b_fun$ )(?v1 B_stream$ ))(= (shd$a (smap$f ?v0 ?v1 ))(fun_app$h ?v0 (shd$a ?v1 )))):named a6 ))
(assert (! (forall ((?v0 A_a_fun$ )(?v1 A_stream$ ))(= (shd$ (smap$g ?v0 ?v1 ))(fun_app$i ?v0 (shd$ ?v1 )))):named a7 ))
(assert (! (forall ((?v0 B_a_fun$ )(?v1 B_stream$ ))(= (shd$ (smap$ ?v0 ?v1 ))(fun_app$a ?v0 (shd$a ?v1 )))):named a8 ))
(assert (! (forall ((?v0 B_b_stream_fun$ )(?v1 B_stream$ ))(= (stl$b (smap$a ?v0 ?v1 ))(smap$a ?v0 (stl$a ?v1 )))):named a9 ))
(assert (! (forall ((?v0 B_a_stream_fun$ )(?v1 B_stream$ ))(= (stl$c (smap$b ?v0 ?v1 ))(smap$b ?v0 (stl$a ?v1 )))):named a10 ))
(assert (! (forall ((?v0 A_b_stream_fun$ )(?v1 A_stream$ ))(= (stl$b (smap$c ?v0 ?v1 ))(smap$c ?v0 (stl$ ?v1 )))):named a11 ))
(assert (! (forall ((?v0 A_a_stream_fun$ )(?v1 A_stream$ ))(= (stl$c (smap$d ?v0 ?v1 ))(smap$d ?v0 (stl$ ?v1 )))):named a12 ))
(assert (! (forall ((?v0 A_b_fun$ )(?v1 A_stream$ ))(= (stl$a (smap$e ?v0 ?v1 ))(smap$e ?v0 (stl$ ?v1 )))):named a13 ))
(assert (! (forall ((?v0 B_b_fun$ )(?v1 B_stream$ ))(= (stl$a (smap$f ?v0 ?v1 ))(smap$f ?v0 (stl$a ?v1 )))):named a14 ))
(assert (! (forall ((?v0 A_a_fun$ )(?v1 A_stream$ ))(= (stl$ (smap$g ?v0 ?v1 ))(smap$g ?v0 (stl$ ?v1 )))):named a15 ))
(assert (! (forall ((?v0 B_a_fun$ )(?v1 B_stream$ ))(= (stl$ (smap$ ?v0 ?v1 ))(smap$ ?v0 (stl$a ?v1 )))):named a16 ))
(assert (! (forall ((?v0 B_stream$ )(?v1 B_set$ )(?v2 B_a_fun$ )(?v3 A_set$ ))(=> (and (member$ ?v0 (streams$ ?v1 ))(forall ((?v4 B$ ))(=> (member$a ?v4 ?v1 )(member$b (fun_app$a ?v2 ?v4 )?v3 ))))(member$c (smap$ ?v2 ?v0 )(streams$a ?v3 )))):named a17 ))
(assert (! (forall ((?v0 A_stream$ )(?v1 A_set$ )(?v2 A_b_fun$ )(?v3 B_set$ ))(=> (and (member$c ?v0 (streams$a ?v1 ))(forall ((?v4 A$ ))(=> (member$b ?v4 ?v1 )(member$a (fun_app$g ?v2 ?v4 )?v3 ))))(member$ (smap$e ?v2 ?v0 )(streams$ ?v3 )))):named a18 ))
(assert (! (forall ((?v0 B_stream$ )(?v1 B_set$ )(?v2 B_b_fun$ )(?v3 B_set$ ))(=> (and (member$ ?v0 (streams$ ?v1 ))(forall ((?v4 B$ ))(=> (member$a ?v4 ?v1 )(member$a (fun_app$h ?v2 ?v4 )?v3 ))))(member$ (smap$f ?v2 ?v0 )(streams$ ?v3 )))):named a19 ))
(assert (! (forall ((?v0 A_stream$ )(?v1 A_set$ )(?v2 A_a_fun$ )(?v3 A_set$ ))(=> (and (member$c ?v0 (streams$a ?v1 ))(forall ((?v4 A$ ))(=> (member$b ?v4 ?v1 )(member$b (fun_app$i ?v2 ?v4 )?v3 ))))(member$c (smap$g ?v2 ?v0 )(streams$a ?v3 )))):named a20 ))
(assert (! (forall ((?v0 B_stream_stream$ )(?v1 B_stream_set$ )(?v2 B_stream_b_fun$ )(?v3 B_set$ ))(=> (and (member$d ?v0 (streams$b ?v1 ))(forall ((?v4 B_stream$ ))(=> (member$ ?v4 ?v1 )(member$a (fun_app$j ?v2 ?v4 )?v3 ))))(member$ (smap$h ?v2 ?v0 )(streams$ ?v3 )))):named a21 ))
(assert (! (forall ((?v0 A_stream_stream$ )(?v1 A_stream_set$ )(?v2 A_stream_b_fun$ )(?v3 B_set$ ))(=> (and (member$e ?v0 (streams$c ?v1 ))(forall ((?v4 A_stream$ ))(=> (member$c ?v4 ?v1 )(member$a (fun_app$k ?v2 ?v4 )?v3 ))))(member$ (smap$i ?v2 ?v0 )(streams$ ?v3 )))):named a22 ))
(assert (! (forall ((?v0 B_stream_stream$ )(?v1 B_stream_set$ )(?v2 B_stream_a_fun$ )(?v3 A_set$ ))(=> (and (member$d ?v0 (streams$b ?v1 ))(forall ((?v4 B_stream$ ))(=> (member$ ?v4 ?v1 )(member$b (fun_app$l ?v2 ?v4 )?v3 ))))(member$c (smap$j ?v2 ?v0 )(streams$a ?v3 )))):named a23 ))
(assert (! (forall ((?v0 A_stream_stream$ )(?v1 A_stream_set$ )(?v2 A_stream_a_fun$ )(?v3 A_set$ ))(=> (and (member$e ?v0 (streams$c ?v1 ))(forall ((?v4 A_stream$ ))(=> (member$c ?v4 ?v1 )(member$b (fun_app$m ?v2 ?v4 )?v3 ))))(member$c (smap$k ?v2 ?v0 )(streams$a ?v3 )))):named a24 ))
(assert (! (forall ((?v0 B_stream$ )(?v1 B_set$ )(?v2 B_b_stream_fun$ )(?v3 B_stream_set$ ))(=> (and (member$ ?v0 (streams$ ?v1 ))(forall ((?v4 B$ ))(=> (member$a ?v4 ?v1 )(member$ (fun_app$c ?v2 ?v4 )?v3 ))))(member$d (smap$a ?v2 ?v0 )(streams$b ?v3 )))):named a25 ))
(assert (! (forall ((?v0 B_stream$ )(?v1 B_set$ )(?v2 B_a_stream_fun$ )(?v3 A_stream_set$ ))(=> (and (member$ ?v0 (streams$ ?v1 ))(forall ((?v4 B$ ))(=> (member$a ?v4 ?v1 )(member$c (fun_app$d ?v2 ?v4 )?v3 ))))(member$e (smap$b ?v2 ?v0 )(streams$c ?v3 )))):named a26 ))
(assert (! (forall ((?v0 B_stream$ )(?v1 B_stream$ )(?v2 B_b_stream_fun$ )(?v3 B_b_stream_fun$ ))(=> (and (forall ((?v4 B$ )(?v5 B$ ))(=> (and (member$a ?v4 (sset$ ?v0 ))(and (member$a ?v5 (sset$ ?v1 ))(= (fun_app$c ?v2 ?v4 )(fun_app$c ?v3 ?v5 ))))(= ?v4 ?v5 )))(= (smap$a ?v2 ?v0 )(smap$a ?v3 ?v1 )))(= ?v0 ?v1 ))):named a27 ))
(assert (! (forall ((?v0 B_stream$ )(?v1 B_stream$ )(?v2 B_a_stream_fun$ )(?v3 B_a_stream_fun$ ))(=> (and (forall ((?v4 B$ )(?v5 B$ ))(=> (and (member$a ?v4 (sset$ ?v0 ))(and (member$a ?v5 (sset$ ?v1 ))(= (fun_app$d ?v2 ?v4 )(fun_app$d ?v3 ?v5 ))))(= ?v4 ?v5 )))(= (smap$b ?v2 ?v0 )(smap$b ?v3 ?v1 )))(= ?v0 ?v1 ))):named a28 ))
(assert (! (forall ((?v0 A_stream$ )(?v1 A_stream$ )(?v2 A_b_stream_fun$ )(?v3 A_b_stream_fun$ ))(=> (and (forall ((?v4 A$ )(?v5 A$ ))(=> (and (member$b ?v4 (sset$a ?v0 ))(and (member$b ?v5 (sset$a ?v1 ))(= (fun_app$e ?v2 ?v4 )(fun_app$e ?v3 ?v5 ))))(= ?v4 ?v5 )))(= (smap$c ?v2 ?v0 )(smap$c ?v3 ?v1 )))(= ?v0 ?v1 ))):named a29 ))
(assert (! (forall ((?v0 A_stream$ )(?v1 A_stream$ )(?v2 A_a_stream_fun$ )(?v3 A_a_stream_fun$ ))(=> (and (forall ((?v4 A$ )(?v5 A$ ))(=> (and (member$b ?v4 (sset$a ?v0 ))(and (member$b ?v5 (sset$a ?v1 ))(= (fun_app$f ?v2 ?v4 )(fun_app$f ?v3 ?v5 ))))(= ?v4 ?v5 )))(= (smap$d ?v2 ?v0 )(smap$d ?v3 ?v1 )))(= ?v0 ?v1 ))):named a30 ))
(assert (! (forall ((?v0 A_stream$ )(?v1 A_stream$ )(?v2 A_b_fun$ )(?v3 A_b_fun$ ))(=> (and (forall ((?v4 A$ )(?v5 A$ ))(=> (and (member$b ?v4 (sset$a ?v0 ))(and (member$b ?v5 (sset$a ?v1 ))(= (fun_app$g ?v2 ?v4 )(fun_app$g ?v3 ?v5 ))))(= ?v4 ?v5 )))(= (smap$e ?v2 ?v0 )(smap$e ?v3 ?v1 )))(= ?v0 ?v1 ))):named a31 ))
(assert (! (forall ((?v0 A_stream$ )(?v1 A_stream$ )(?v2 A_a_fun$ )(?v3 A_a_fun$ ))(=> (and (forall ((?v4 A$ )(?v5 A$ ))(=> (and (member$b ?v4 (sset$a ?v0 ))(and (member$b ?v5 (sset$a ?v1 ))(= (fun_app$i ?v2 ?v4 )(fun_app$i ?v3 ?v5 ))))(= ?v4 ?v5 )))(= (smap$g ?v2 ?v0 )(smap$g ?v3 ?v1 )))(= ?v0 ?v1 ))):named a32 ))
(assert (! (forall ((?v0 B_stream$ )(?v1 B_stream$ )(?v2 B_b_fun$ )(?v3 B_b_fun$ ))(=> (and (forall ((?v4 B$ )(?v5 B$ ))(=> (and (member$a ?v4 (sset$ ?v0 ))(and (member$a ?v5 (sset$ ?v1 ))(= (fun_app$h ?v2 ?v4 )(fun_app$h ?v3 ?v5 ))))(= ?v4 ?v5 )))(= (smap$f ?v2 ?v0 )(smap$f ?v3 ?v1 )))(= ?v0 ?v1 ))):named a33 ))
(assert (! (forall ((?v0 B_stream$ )(?v1 B_stream$ )(?v2 B_a_fun$ )(?v3 B_a_fun$ ))(=> (and (forall ((?v4 B$ )(?v5 B$ ))(=> (and (member$a ?v4 (sset$ ?v0 ))(and (member$a ?v5 (sset$ ?v1 ))(= (fun_app$a ?v2 ?v4 )(fun_app$a ?v3 ?v5 ))))(= ?v4 ?v5 )))(= (smap$ ?v2 ?v0 )(smap$ ?v3 ?v1 )))(= ?v0 ?v1 ))):named a34 ))
(assert (! (forall ((?v0 B_stream$ )(?v1 B_b_stream_fun$ )(?v2 B_b_stream_fun$ ))(=> (forall ((?v3 B$ ))(=> (member$a ?v3 (sset$ ?v0 ))(= (fun_app$c ?v1 ?v3 )(fun_app$c ?v2 ?v3 ))))(= (smap$a ?v1 ?v0 )(smap$a ?v2 ?v0 )))):named a35 ))
(assert (! (forall ((?v0 B_stream$ )(?v1 B_a_stream_fun$ )(?v2 B_a_stream_fun$ ))(=> (forall ((?v3 B$ ))(=> (member$a ?v3 (sset$ ?v0 ))(= (fun_app$d ?v1 ?v3 )(fun_app$d ?v2 ?v3 ))))(= (smap$b ?v1 ?v0 )(smap$b ?v2 ?v0 )))):named a36 ))
(assert (! (forall ((?v0 A_stream$ )(?v1 A_b_stream_fun$ )(?v2 A_b_stream_fun$ ))(=> (forall ((?v3 A$ ))(=> (member$b ?v3 (sset$a ?v0 ))(= (fun_app$e ?v1 ?v3 )(fun_app$e ?v2 ?v3 ))))(= (smap$c ?v1 ?v0 )(smap$c ?v2 ?v0 )))):named a37 ))
(assert (! (forall ((?v0 A_stream$ )(?v1 A_a_stream_fun$ )(?v2 A_a_stream_fun$ ))(=> (forall ((?v3 A$ ))(=> (member$b ?v3 (sset$a ?v0 ))(= (fun_app$f ?v1 ?v3 )(fun_app$f ?v2 ?v3 ))))(= (smap$d ?v1 ?v0 )(smap$d ?v2 ?v0 )))):named a38 ))
(assert (! (forall ((?v0 A_stream$ )(?v1 A_b_fun$ )(?v2 A_b_fun$ ))(=> (forall ((?v3 A$ ))(=> (member$b ?v3 (sset$a ?v0 ))(= (fun_app$g ?v1 ?v3 )(fun_app$g ?v2 ?v3 ))))(= (smap$e ?v1 ?v0 )(smap$e ?v2 ?v0 )))):named a39 ))
(assert (! (forall ((?v0 A_stream$ )(?v1 A_a_fun$ )(?v2 A_a_fun$ ))(=> (forall ((?v3 A$ ))(=> (member$b ?v3 (sset$a ?v0 ))(= (fun_app$i ?v1 ?v3 )(fun_app$i ?v2 ?v3 ))))(= (smap$g ?v1 ?v0 )(smap$g ?v2 ?v0 )))):named a40 ))
(assert (! (forall ((?v0 B_stream$ )(?v1 B_b_fun$ )(?v2 B_b_fun$ ))(=> (forall ((?v3 B$ ))(=> (member$a ?v3 (sset$ ?v0 ))(= (fun_app$h ?v1 ?v3 )(fun_app$h ?v2 ?v3 ))))(= (smap$f ?v1 ?v0 )(smap$f ?v2 ?v0 )))):named a41 ))
(assert (! (forall ((?v0 B_stream$ )(?v1 B_a_fun$ )(?v2 B_a_fun$ ))(=> (forall ((?v3 B$ ))(=> (member$a ?v3 (sset$ ?v0 ))(= (fun_app$a ?v1 ?v3 )(fun_app$a ?v2 ?v3 ))))(= (smap$ ?v1 ?v0 )(smap$ ?v2 ?v0 )))):named a42 ))
(assert (! (forall ((?v0 B_stream$ )(?v1 B_stream$ )(?v2 B_b_stream_fun$ )(?v3 B_b_stream_fun$ ))(=> (and (= ?v0 ?v1 )(forall ((?v4 B$ ))(=> (member$a ?v4 (sset$ ?v1 ))(= (fun_app$c ?v2 ?v4 )(fun_app$c ?v3 ?v4 )))))(= (smap$a ?v2 ?v0 )(smap$a ?v3 ?v1 )))):named a43 ))
(assert (! (forall ((?v0 B_stream$ )(?v1 B_stream$ )(?v2 B_a_stream_fun$ )(?v3 B_a_stream_fun$ ))(=> (and (= ?v0 ?v1 )(forall ((?v4 B$ ))(=> (member$a ?v4 (sset$ ?v1 ))(= (fun_app$d ?v2 ?v4 )(fun_app$d ?v3 ?v4 )))))(= (smap$b ?v2 ?v0 )(smap$b ?v3 ?v1 )))):named a44 ))
(assert (! (forall ((?v0 A_stream$ )(?v1 A_stream$ )(?v2 A_b_stream_fun$ )(?v3 A_b_stream_fun$ ))(=> (and (= ?v0 ?v1 )(forall ((?v4 A$ ))(=> (member$b ?v4 (sset$a ?v1 ))(= (fun_app$e ?v2 ?v4 )(fun_app$e ?v3 ?v4 )))))(= (smap$c ?v2 ?v0 )(smap$c ?v3 ?v1 )))):named a45 ))
(assert (! (forall ((?v0 A_stream$ )(?v1 A_stream$ )(?v2 A_a_stream_fun$ )(?v3 A_a_stream_fun$ ))(=> (and (= ?v0 ?v1 )(forall ((?v4 A$ ))(=> (member$b ?v4 (sset$a ?v1 ))(= (fun_app$f ?v2 ?v4 )(fun_app$f ?v3 ?v4 )))))(= (smap$d ?v2 ?v0 )(smap$d ?v3 ?v1 )))):named a46 ))
(assert (! (forall ((?v0 A_stream$ )(?v1 A_stream$ )(?v2 A_b_fun$ )(?v3 A_b_fun$ ))(=> (and (= ?v0 ?v1 )(forall ((?v4 A$ ))(=> (member$b ?v4 (sset$a ?v1 ))(= (fun_app$g ?v2 ?v4 )(fun_app$g ?v3 ?v4 )))))(= (smap$e ?v2 ?v0 )(smap$e ?v3 ?v1 )))):named a47 ))
(assert (! (forall ((?v0 A_stream$ )(?v1 A_stream$ )(?v2 A_a_fun$ )(?v3 A_a_fun$ ))(=> (and (= ?v0 ?v1 )(forall ((?v4 A$ ))(=> (member$b ?v4 (sset$a ?v1 ))(= (fun_app$i ?v2 ?v4 )(fun_app$i ?v3 ?v4 )))))(= (smap$g ?v2 ?v0 )(smap$g ?v3 ?v1 )))):named a48 ))
(assert (! (forall ((?v0 B_stream$ )(?v1 B_stream$ )(?v2 B_b_fun$ )(?v3 B_b_fun$ ))(=> (and (= ?v0 ?v1 )(forall ((?v4 B$ ))(=> (member$a ?v4 (sset$ ?v1 ))(= (fun_app$h ?v2 ?v4 )(fun_app$h ?v3 ?v4 )))))(= (smap$f ?v2 ?v0 )(smap$f ?v3 ?v1 )))):named a49 ))
(assert (! (forall ((?v0 B_stream$ )(?v1 B_stream$ )(?v2 B_a_fun$ )(?v3 B_a_fun$ ))(=> (and (= ?v0 ?v1 )(forall ((?v4 B$ ))(=> (member$a ?v4 (sset$ ?v1 ))(= (fun_app$a ?v2 ?v4 )(fun_app$a ?v3 ?v4 )))))(= (smap$ ?v2 ?v0 )(smap$ ?v3 ?v1 )))):named a50 ))
(assert (! (forall ((?v0 B_a_fun$ )(?v1 B$ )(?v2 B_stream$ ))(! (= (smap$ ?v0 (sCons$a ?v1 ?v2 ))(sCons$ (fun_app$a ?v0 ?v1 )(smap$ ?v0 ?v2 ))):pattern ((smap$ ?v0 (sCons$a ?v1 ?v2 ))))):named a51 ))
(assert (! (forall ((?v0 B_b_fun$ )(?v1 B$ )(?v2 B_stream$ ))(! (= (smap$f ?v0 (sCons$a ?v1 ?v2 ))(sCons$a (fun_app$h ?v0 ?v1 )(smap$f ?v0 ?v2 ))):pattern ((smap$f ?v0 (sCons$a ?v1 ?v2 ))))):named a52 ))
(assert (! (forall ((?v0 A_b_fun$ )(?v1 A$ )(?v2 A_stream$ ))(! (= (smap$e ?v0 (sCons$ ?v1 ?v2 ))(sCons$a (fun_app$g ?v0 ?v1 )(smap$e ?v0 ?v2 ))):pattern ((smap$e ?v0 (sCons$ ?v1 ?v2 ))))):named a53 ))
(assert (! (forall ((?v0 A_a_fun$ )(?v1 A$ )(?v2 A_stream$ ))(! (= (smap$g ?v0 (sCons$ ?v1 ?v2 ))(sCons$ (fun_app$i ?v0 ?v1 )(smap$g ?v0 ?v2 ))):pattern ((smap$g ?v0 (sCons$ ?v1 ?v2 ))))):named a54 ))
(assert (! (forall ((?v0 B_a_stream_fun$ )(?v1 B$ )(?v2 B_stream$ ))(! (= (smap$b ?v0 (sCons$a ?v1 ?v2 ))(sCons$c (fun_app$d ?v0 ?v1 )(smap$b ?v0 ?v2 ))):pattern ((smap$b ?v0 (sCons$a ?v1 ?v2 ))))):named a55 ))
(assert (! (forall ((?v0 B_b_stream_fun$ )(?v1 B$ )(?v2 B_stream$ ))(! (= (smap$a ?v0 (sCons$a ?v1 ?v2 ))(sCons$b (fun_app$c ?v0 ?v1 )(smap$a ?v0 ?v2 ))):pattern ((smap$a ?v0 (sCons$a ?v1 ?v2 ))))):named a56 ))
(assert (! (forall ((?v0 A_a_stream_fun$ )(?v1 A$ )(?v2 A_stream$ ))(! (= (smap$d ?v0 (sCons$ ?v1 ?v2 ))(sCons$c (fun_app$f ?v0 ?v1 )(smap$d ?v0 ?v2 ))):pattern ((smap$d ?v0 (sCons$ ?v1 ?v2 ))))):named a57 ))
(assert (! (forall ((?v0 A_b_stream_fun$ )(?v1 A$ )(?v2 A_stream$ ))(! (= (smap$c ?v0 (sCons$ ?v1 ?v2 ))(sCons$b (fun_app$e ?v0 ?v1 )(smap$c ?v0 ?v2 ))):pattern ((smap$c ?v0 (sCons$ ?v1 ?v2 ))))):named a58 ))
(assert (! (forall ((?v0 A_stream_b_fun$ )(?v1 A_stream$ )(?v2 A_stream_stream$ ))(! (= (smap$i ?v0 (sCons$c ?v1 ?v2 ))(sCons$a (fun_app$k ?v0 ?v1 )(smap$i ?v0 ?v2 ))):pattern ((smap$i ?v0 (sCons$c ?v1 ?v2 ))))):named a59 ))
(assert (! (forall ((?v0 A_stream_a_fun$ )(?v1 A_stream$ )(?v2 A_stream_stream$ ))(! (= (smap$k ?v0 (sCons$c ?v1 ?v2 ))(sCons$ (fun_app$m ?v0 ?v1 )(smap$k ?v0 ?v2 ))):pattern ((smap$k ?v0 (sCons$c ?v1 ?v2 ))))):named a60 ))
(assert (! (forall ((?v0 A_a_fun$ )(?v1 B_a_fun$ )(?v2 B_stream$ ))(= (smap$g ?v0 (smap$ ?v1 ?v2 ))(smap$ (fun_app$n (comp$ ?v0 )?v1 )?v2 ))):named a61 ))
(assert (! (forall ((?v0 B_a_fun$ )(?v1 B_b_fun$ )(?v2 B_stream$ ))(= (smap$ ?v0 (smap$f ?v1 ?v2 ))(smap$ (fun_app$o (comp$a ?v0 )?v1 )?v2 ))):named a62 ))
(assert (! (forall ((?v0 A_b_fun$ )(?v1 B_a_fun$ )(?v2 B_stream$ ))(= (smap$e ?v0 (smap$ ?v1 ?v2 ))(smap$f (fun_app$p (comp$b ?v0 )?v1 )?v2 ))):named a63 ))
(assert (! (forall ((?v0 B_a_fun$ )(?v1 A_b_fun$ )(?v2 A_stream$ ))(= (smap$ ?v0 (smap$e ?v1 ?v2 ))(smap$g (fun_app$q (comp$c ?v0 )?v1 )?v2 ))):named a64 ))
(assert (! (forall ((?v0 B_b_fun$ )(?v1 B_b_fun$ )(?v2 B_stream$ ))(= (smap$f ?v0 (smap$f ?v1 ?v2 ))(smap$f (fun_app$r (comp$d ?v0 )?v1 )?v2 ))):named a65 ))
(assert (! (forall ((?v0 A_a_fun$ )(?v1 A_a_fun$ )(?v2 A_stream$ ))(= (smap$g ?v0 (smap$g ?v1 ?v2 ))(smap$g (fun_app$s (comp$e ?v0 )?v1 )?v2 ))):named a66 ))
(assert (! (forall ((?v0 B_b_fun$ )(?v1 A_b_fun$ )(?v2 A_stream$ ))(= (smap$f ?v0 (smap$e ?v1 ?v2 ))(smap$e (fun_app$t (comp$f ?v0 )?v1 )?v2 ))):named a67 ))
(assert (! (forall ((?v0 A_b_fun$ )(?v1 A_a_fun$ )(?v2 A_stream$ ))(= (smap$e ?v0 (smap$g ?v1 ?v2 ))(smap$e (fun_app$u (comp$g ?v0 )?v1 )?v2 ))):named a68 ))
(assert (! (forall ((?v0 B_stream_a_fun$ )(?v1 B_b_stream_fun$ )(?v2 B_stream$ ))(= (smap$j ?v0 (smap$a ?v1 ?v2 ))(smap$ (fun_app$v (comp$h ?v0 )?v1 )?v2 ))):named a69 ))
(assert (! (forall ((?v0 B_stream_b_fun$ )(?v1 B_b_stream_fun$ )(?v2 B_stream$ ))(= (smap$h ?v0 (smap$a ?v1 ?v2 ))(smap$f (fun_app$w (comp$i ?v0 )?v1 )?v2 ))):named a70 ))
(assert (! (forall ((?v0 B_stream$ ))(= (smap$f id$ ?v0 )?v0 )):named a71 ))
(assert (! (forall ((?v0 A_stream$ ))(= (smap$g id$a ?v0 )?v0 )):named a72 ))
(assert (! (forall ((?v0 A_stream$ ))(! (= (fun_app$ (snth$ ?v0 )zero$ )(shd$ ?v0 )):pattern ((snth$ ?v0 )))):named a73 ))
(assert (! (forall ((?v0 B_stream$ ))(! (= (fun_app$b (snth$a ?v0 )zero$ )(shd$a ?v0 )):pattern ((snth$a ?v0 )))):named a74 ))
(assert (! (forall ((?v0 A_stream$ )(?v1 Nat$ ))(! (= (fun_app$ (snth$ ?v0 )(suc$ ?v1 ))(fun_app$ (snth$ (stl$ ?v0 ))?v1 )):pattern ((fun_app$ (snth$ ?v0 )(suc$ ?v1 ))))):named a75 ))
(assert (! (forall ((?v0 B_stream$ )(?v1 Nat$ ))(! (= (fun_app$b (snth$a ?v0 )(suc$ ?v1 ))(fun_app$b (snth$a (stl$a ?v0 ))?v1 )):pattern ((fun_app$b (snth$a ?v0 )(suc$ ?v1 ))))):named a76 ))
(assert (! (forall ((?v0 A_stream$ )(?v1 A_stream_stream$ )(?v2 Nat$ ))(! (= (snth$b (sCons$c ?v0 ?v1 )(suc$ ?v2 ))(snth$b ?v1 ?v2 )):pattern ((snth$b (sCons$c ?v0 ?v1 )(suc$ ?v2 ))))):named a77 ))
(assert (! (forall ((?v0 B_stream$ )(?v1 B_stream_stream$ )(?v2 Nat$ ))(! (= (snth$c (sCons$b ?v0 ?v1 )(suc$ ?v2 ))(snth$c ?v1 ?v2 )):pattern ((snth$c (sCons$b ?v0 ?v1 )(suc$ ?v2 ))))):named a78 ))
(assert (! (forall ((?v0 A$ )(?v1 A_stream$ )(?v2 Nat$ ))(! (= (fun_app$ (snth$ (sCons$ ?v0 ?v1 ))(suc$ ?v2 ))(fun_app$ (snth$ ?v1 )?v2 )):pattern ((fun_app$ (snth$ (sCons$ ?v0 ?v1 ))(suc$ ?v2 ))))):named a79 ))
(assert (! (forall ((?v0 B$ )(?v1 B_stream$ )(?v2 Nat$ ))(! (= (fun_app$b (snth$a (sCons$a ?v0 ?v1 ))(suc$ ?v2 ))(fun_app$b (snth$a ?v1 )?v2 )):pattern ((fun_app$b (snth$a (sCons$a ?v0 ?v1 ))(suc$ ?v2 ))))):named a80 ))
(assert (! (forall ((?v0 A_stream$ )(?v1 A_stream_stream$ )(?v2 A_stream$ )(?v3 A_stream_stream$ ))(= (= (sCons$c ?v0 ?v1 )(sCons$c ?v2 ?v3 ))(and (= ?v0 ?v2 )(= ?v1 ?v3 )))):named a81 ))
(assert (! (forall ((?v0 B_stream$ )(?v1 B_stream_stream$ )(?v2 B_stream$ )(?v3 B_stream_stream$ ))(= (= (sCons$b ?v0 ?v1 )(sCons$b ?v2 ?v3 ))(and (= ?v0 ?v2 )(= ?v1 ?v3 )))):named a82 ))
(assert (! (forall ((?v0 B$ )(?v1 B_stream$ )(?v2 B$ )(?v3 B_stream$ ))(= (= (sCons$a ?v0 ?v1 )(sCons$a ?v2 ?v3 ))(and (= ?v0 ?v2 )(= ?v1 ?v3 )))):named a83 ))
(assert (! (forall ((?v0 A$ )(?v1 A_stream$ )(?v2 A$ )(?v3 A_stream$ ))(= (= (sCons$ ?v0 ?v1 )(sCons$ ?v2 ?v3 ))(and (= ?v0 ?v2 )(= ?v1 ?v3 )))):named a84 ))
(assert (! (forall ((?v0 A_stream_stream$ ))(= (sCons$c (shd$c ?v0 )(stl$c ?v0 ))?v0 )):named a85 ))
(assert (! (forall ((?v0 B_stream_stream$ ))(= (sCons$b (shd$b ?v0 )(stl$b ?v0 ))?v0 )):named a86 ))
(assert (! (forall ((?v0 B_stream$ ))(= (sCons$a (shd$a ?v0 )(stl$a ?v0 ))?v0 )):named a87 ))
(assert (! (forall ((?v0 A_stream$ ))(= (sCons$ (shd$ ?v0 )(stl$ ?v0 ))?v0 )):named a88 ))
(assert (! (forall ((?v0 A_stream_stream$ )(?v1 A_stream_stream_stream$ )(?v2 A_stream_stream_set$ ))(= (member$f (sCons$d ?v0 ?v1 )(streams$d ?v2 ))(and (member$e ?v0 ?v2 )(member$f ?v1 (streams$d ?v2 ))))):named a89 ))
(assert (! (forall ((?v0 B_stream_stream$ )(?v1 B_stream_stream_stream$ )(?v2 B_stream_stream_set$ ))(= (member$g (sCons$e ?v0 ?v1 )(streams$e ?v2 ))(and (member$d ?v0 ?v2 )(member$g ?v1 (streams$e ?v2 ))))):named a90 ))
(assert (! (forall ((?v0 B_stream$ )(?v1 B_stream_stream$ )(?v2 B_stream_set$ ))(= (member$d (sCons$b ?v0 ?v1 )(streams$b ?v2 ))(and (member$ ?v0 ?v2 )(member$d ?v1 (streams$b ?v2 ))))):named a91 ))
(assert (! (forall ((?v0 A_stream$ )(?v1 A_stream_stream$ )(?v2 A_stream_set$ ))(= (member$e (sCons$c ?v0 ?v1 )(streams$c ?v2 ))(and (member$c ?v0 ?v2 )(member$e ?v1 (streams$c ?v2 ))))):named a92 ))
(assert (! (forall ((?v0 B$ )(?v1 B_stream$ )(?v2 B_set$ ))(= (member$ (sCons$a ?v0 ?v1 )(streams$ ?v2 ))(and (member$a ?v0 ?v2 )(member$ ?v1 (streams$ ?v2 ))))):named a93 ))
(assert (! (forall ((?v0 A$ )(?v1 A_stream$ )(?v2 A_set$ ))(= (member$c (sCons$ ?v0 ?v1 )(streams$a ?v2 ))(and (member$b ?v0 ?v2 )(member$c ?v1 (streams$a ?v2 ))))):named a94 ))
(assert (! (forall ((?v0 A_stream_stream_stream$ )(?v1 A_stream_stream_set$ ))(= (member$f ?v0 (streams$d ?v1 ))(exists ((?v2 A_stream_stream$ )(?v3 A_stream_stream_stream$ ))(and (= ?v0 (sCons$d ?v2 ?v3 ))(and (member$e ?v2 ?v1 )(member$f ?v3 (streams$d ?v1 ))))))):named a95 ))
(assert (! (forall ((?v0 B_stream_stream_stream$ )(?v1 B_stream_stream_set$ ))(= (member$g ?v0 (streams$e ?v1 ))(exists ((?v2 B_stream_stream$ )(?v3 B_stream_stream_stream$ ))(and (= ?v0 (sCons$e ?v2 ?v3 ))(and (member$d ?v2 ?v1 )(member$g ?v3 (streams$e ?v1 ))))))):named a96 ))
(assert (! (forall ((?v0 B_stream_stream$ )(?v1 B_stream_set$ ))(= (member$d ?v0 (streams$b ?v1 ))(exists ((?v2 B_stream$ )(?v3 B_stream_stream$ ))(and (= ?v0 (sCons$b ?v2 ?v3 ))(and (member$ ?v2 ?v1 )(member$d ?v3 (streams$b ?v1 ))))))):named a97 ))
(assert (! (forall ((?v0 A_stream_stream$ )(?v1 A_stream_set$ ))(= (member$e ?v0 (streams$c ?v1 ))(exists ((?v2 A_stream$ )(?v3 A_stream_stream$ ))(and (= ?v0 (sCons$c ?v2 ?v3 ))(and (member$c ?v2 ?v1 )(member$e ?v3 (streams$c ?v1 ))))))):named a98 ))
(assert (! (forall ((?v0 B_stream$ )(?v1 B_set$ ))(= (member$ ?v0 (streams$ ?v1 ))(exists ((?v2 B$ )(?v3 B_stream$ ))(and (= ?v0 (sCons$a ?v2 ?v3 ))(and (member$a ?v2 ?v1 )(member$ ?v3 (streams$ ?v1 ))))))):named a99 ))
(assert (! (forall ((?v0 A_stream$ )(?v1 A_set$ ))(= (member$c ?v0 (streams$a ?v1 ))(exists ((?v2 A$ )(?v3 A_stream$ ))(and (= ?v0 (sCons$ ?v2 ?v3 ))(and (member$b ?v2 ?v1 )(member$c ?v3 (streams$a ?v1 ))))))):named a100 ))
(assert (! (forall ((?v0 A_stream$ )(?v1 A_stream_stream$ ))(! (= (shd$c (sCons$c ?v0 ?v1 ))?v0 ):pattern ((sCons$c ?v0 ?v1 )))):named a101 ))
(assert (! (forall ((?v0 B_stream$ )(?v1 B_stream_stream$ ))(! (= (shd$b (sCons$b ?v0 ?v1 ))?v0 ):pattern ((sCons$b ?v0 ?v1 )))):named a102 ))
(assert (! (forall ((?v0 B$ )(?v1 B_stream$ ))(! (= (shd$a (sCons$a ?v0 ?v1 ))?v0 ):pattern ((sCons$a ?v0 ?v1 )))):named a103 ))
(assert (! (forall ((?v0 A$ )(?v1 A_stream$ ))(! (= (shd$ (sCons$ ?v0 ?v1 ))?v0 ):pattern ((sCons$ ?v0 ?v1 )))):named a104 ))
(check-sat )
;(get-unsat-core )
